37 65 7 51 137 119 179 26 23 164 87 178 12 180 78 146 40 83 136 171 68 157 183 106 85 95 151 15 62 153 14 72 38 90 53 76 42 70 187 122 121 3 92 43 59 52 123 117 61 34 36 195 18 191 50 118 99 29 143 1 47 140 91 116 135 144 177 54 112 86 25 162 130 147 94 150 55 20 181 132 46 27 11 114 105 103 182 81 17 113 163 24 19 141 9 8 101 115 4 176 2 82 39 5 58 149 154 63 84 142 188 186 159 64 173 13 67 32 165 44 98 77 30 56 71 134 160 126 75 79 193 156 133 108 124 145 45 120 189 100 194 73 111 60 170 6 197 131 66 74 158 175 35 128 107 198 196 190 28 127 57 102 110 192 21 184 172 41 22 109 167 10 88 89 16 139 138 69 152 48 169 97 166 96 104 31 93 161 168 125 199 155 0 49 174 129 80 33 148 185